\ Model obj
\ LP format - for model browsing. Use MPS format to capture full model detail.
Minimize
  X0 + X1 + X2 + X3 + X4 + X5 + X6 + X7 + X8 + X9 + X10 + X11 + X12 + X13
   + X14 + X15 + X16 + X17 + X18 + X19 + X20 + X21 + X22 + X23 + X24 + X25
   + X26 + X27 + X28 + X29 + X30 + X31 + X32 + X33 + X34 + X35 + X36 + X37
   + X38 + X39 + X40 + X41 + X42 + X43 + X44
Subject To
 R0: X3 + X4 + X6 >= 1
 R1: X4 + X5 + X7 >= 1
 R2: X1 + X5 + X8 >= 1
 R3: X1 + X2 + X9 >= 1
 R4: X2 + X3 + X10 >= 1
 R5: X2 + X5 + X6 >= 1
 R6: X1 + X3 + X7 >= 1
 R7: X2 + X4 + X8 >= 1
 R8: X3 + X5 + X9 >= 1
 R9: X1 + X4 + X10 >= 1
 R10: X8 + X9 + X11 >= 1
 R11: X9 + X10 + X12 >= 1
 R12: X6 + X10 + X13 >= 1
 R13: X6 + X7 + X14 >= 1
 R14: X7 + X8 + X15 >= 1
 R15: X7 + X10 + X11 >= 1
 R16: X6 + X8 + X12 >= 1
 R17: X7 + X9 + X13 >= 1
 R18: X8 + X10 + X14 >= 1
 R19: X6 + X9 + X15 >= 1
 R20: X1 + X13 + X14 >= 1
 R21: X2 + X14 + X15 >= 1
 R22: X3 + X11 + X15 >= 1
 R23: X4 + X11 + X12 >= 1
 R24: X5 + X12 + X13 >= 1
 R25: X1 + X12 + X15 >= 1
 R26: X2 + X11 + X13 >= 1
 R27: X3 + X12 + X14 >= 1
 R28: X4 + X13 + X15 >= 1
 R29: X5 + X11 + X14 >= 1
 R30: X1 + X6 + X11 >= 1
 R31: X2 + X7 + X12 >= 1
 R32: X3 + X8 + X13 >= 1
 R33: X4 + X9 + X14 >= 1
 R34: X5 + X10 + X15 >= 1
 R35: X18 + X19 + X21 >= 1
 R36: X19 + X20 + X22 >= 1
 R37: X16 + X20 + X23 >= 1
 R38: X16 + X17 + X24 >= 1
 R39: X17 + X18 + X25 >= 1
 R40: X17 + X20 + X21 >= 1
 R41: X16 + X18 + X22 >= 1
 R42: X17 + X19 + X23 >= 1
 R43: X18 + X20 + X24 >= 1
 R44: X16 + X19 + X25 >= 1
 R45: X23 + X24 + X26 >= 1
 R46: X24 + X25 + X27 >= 1
 R47: X21 + X25 + X28 >= 1
 R48: X21 + X22 + X29 >= 1
 R49: X22 + X23 + X30 >= 1
 R50: X22 + X25 + X26 >= 1
 R51: X21 + X23 + X27 >= 1
 R52: X22 + X24 + X28 >= 1
 R53: X23 + X25 + X29 >= 1
 R54: X21 + X24 + X30 >= 1
 R55: X16 + X28 + X29 >= 1
 R56: X17 + X29 + X30 >= 1
 R57: X18 + X26 + X30 >= 1
 R58: X19 + X26 + X27 >= 1
 R59: X20 + X27 + X28 >= 1
 R60: X16 + X27 + X30 >= 1
 R61: X17 + X26 + X28 >= 1
 R62: X18 + X27 + X29 >= 1
 R63: X19 + X28 + X30 >= 1
 R64: X20 + X26 + X29 >= 1
 R65: X16 + X21 + X26 >= 1
 R66: X17 + X22 + X27 >= 1
 R67: X18 + X23 + X28 >= 1
 R68: X19 + X24 + X29 >= 1
 R69: X20 + X25 + X30 >= 1
 R70: X33 + X34 + X36 >= 1
 R71: X34 + X35 + X37 >= 1
 R72: X31 + X35 + X38 >= 1
 R73: X31 + X32 + X39 >= 1
 R74: X32 + X33 + X40 >= 1
 R75: X32 + X35 + X36 >= 1
 R76: X31 + X33 + X37 >= 1
 R77: X32 + X34 + X38 >= 1
 R78: X33 + X35 + X39 >= 1
 R79: X31 + X34 + X40 >= 1
 R80: X38 + X39 + X41 >= 1
 R81: X39 + X40 + X42 >= 1
 R82: X36 + X40 + X43 >= 1
 R83: X36 + X37 + X44 >= 1
 R84: X0 + X37 + X38 >= 1
 R85: X37 + X40 + X41 >= 1
 R86: X36 + X38 + X42 >= 1
 R87: X37 + X39 + X43 >= 1
 R88: X38 + X40 + X44 >= 1
 R89: X0 + X36 + X39 >= 1
 R90: X31 + X43 + X44 >= 1
 R91: X0 + X32 + X44 >= 1
 R92: X0 + X33 + X41 >= 1
 R93: X34 + X41 + X42 >= 1
 R94: X35 + X42 + X43 >= 1
 R95: X0 + X31 + X42 >= 1
 R96: X32 + X41 + X43 >= 1
 R97: X33 + X42 + X44 >= 1
 R98: X0 + X34 + X43 >= 1
 R99: X35 + X41 + X44 >= 1
 R100: X31 + X36 + X41 >= 1
 R101: X32 + X37 + X42 >= 1
 R102: X33 + X38 + X43 >= 1
 R103: X34 + X39 + X44 >= 1
 R104: X0 + X35 + X40 >= 1
 R105: X1 + X16 + X31 >= 1
 R106: X1 + X17 + X39 >= 1
 R107: X1 + X18 + X37 >= 1
 R108: X1 + X19 + X40 >= 1
 R109: X1 + X20 + X38 >= 1
 R110: X1 + X21 + X41 >= 1
 R111: X1 + X22 + X33 >= 1
 R112: X1 + X23 + X35 >= 1
 R113: X1 + X24 + X32 >= 1
 R114: X1 + X25 + X34 >= 1
 R115: X1 + X26 + X36 >= 1
 R116: X0 + X1 + X27 >= 1
 R117: X1 + X28 + X44 >= 1
 R118: X1 + X29 + X43 >= 1
 R119: X1 + X30 + X42 >= 1
 R120: X2 + X16 + X39 >= 1
 R121: X2 + X17 + X32 >= 1
 R122: X2 + X18 + X40 >= 1
 R123: X2 + X19 + X38 >= 1
 R124: X2 + X20 + X36 >= 1
 R125: X2 + X21 + X35 >= 1
 R126: X2 + X22 + X42 >= 1
 R127: X2 + X23 + X34 >= 1
 R128: X2 + X24 + X31 >= 1
 R129: X2 + X25 + X33 >= 1
 R130: X2 + X26 + X43 >= 1
 R131: X2 + X27 + X37 >= 1
 R132: X2 + X28 + X41 >= 1
 R133: X0 + X2 + X29 >= 1
 R134: X2 + X30 + X44 >= 1
 R135: X3 + X16 + X37 >= 1
 R136: X3 + X17 + X40 >= 1
 R137: X3 + X18 + X33 >= 1
 R138: X3 + X19 + X36 >= 1
 R139: X3 + X20 + X39 >= 1
 R140: X3 + X21 + X34 >= 1
 R141: X3 + X22 + X31 >= 1
 R142: X3 + X23 + X43 >= 1
 R143: X3 + X24 + X35 >= 1
 R144: X3 + X25 + X32 >= 1
 R145: X0 + X3 + X26 >= 1
 R146: X3 + X27 + X44 >= 1
 R147: X3 + X28 + X38 >= 1
 R148: X3 + X29 + X42 >= 1
 R149: X3 + X30 + X41 >= 1
 R150: X4 + X16 + X40 >= 1
 R151: X4 + X17 + X38 >= 1
 R152: X4 + X18 + X36 >= 1
 R153: X4 + X19 + X34 >= 1
 R154: X4 + X20 + X37 >= 1
 R155: X4 + X21 + X33 >= 1
 R156: X4 + X22 + X35 >= 1
 R157: X4 + X23 + X32 >= 1
 R158: X4 + X24 + X44 >= 1
 R159: X4 + X25 + X31 >= 1
 R160: X4 + X26 + X42 >= 1
 R161: X4 + X27 + X41 >= 1
 R162: X0 + X4 + X28 >= 1
 R163: X4 + X29 + X39 >= 1
 R164: X4 + X30 + X43 >= 1
 R165: X5 + X16 + X38 >= 1
 R166: X5 + X17 + X36 >= 1
 R167: X5 + X18 + X39 >= 1
 R168: X5 + X19 + X37 >= 1
 R169: X5 + X20 + X35 >= 1
 R170: X5 + X21 + X32 >= 1
 R171: X5 + X22 + X34 >= 1
 R172: X5 + X23 + X31 >= 1
 R173: X5 + X24 + X33 >= 1
 R174: X0 + X5 + X25 >= 1
 R175: X5 + X26 + X44 >= 1
 R176: X5 + X27 + X43 >= 1
 R177: X5 + X28 + X42 >= 1
 R178: X5 + X29 + X41 >= 1
 R179: X5 + X30 + X40 >= 1
 R180: X6 + X16 + X41 >= 1
 R181: X6 + X17 + X35 >= 1
 R182: X6 + X18 + X34 >= 1
 R183: X6 + X19 + X33 >= 1
 R184: X6 + X20 + X32 >= 1
 R185: X6 + X21 + X36 >= 1
 R186: X6 + X22 + X44 >= 1
 R187: X6 + X23 + X42 >= 1
 R188: X0 + X6 + X24 >= 1
 R189: X6 + X25 + X43 >= 1
 R190: X6 + X26 + X31 >= 1
 R191: X6 + X27 + X38 >= 1
 R192: X6 + X28 + X40 >= 1
 R193: X6 + X29 + X37 >= 1
 R194: X6 + X30 + X39 >= 1
 R195: X7 + X16 + X33 >= 1
 R196: X7 + X17 + X42 >= 1
 R197: X7 + X18 + X31 >= 1
 R198: X7 + X19 + X35 >= 1
 R199: X7 + X20 + X34 >= 1
 R200: X7 + X21 + X44 >= 1
 R201: X7 + X22 + X37 >= 1
 R202: X0 + X7 + X23 >= 1
 R203: X7 + X24 + X43 >= 1
 R204: X7 + X25 + X41 >= 1
 R205: X7 + X26 + X40 >= 1
 R206: X7 + X27 + X32 >= 1
 R207: X7 + X28 + X39 >= 1
 R208: X7 + X29 + X36 >= 1
 R209: X7 + X30 + X38 >= 1
 R210: X8 + X16 + X35 >= 1
 R211: X8 + X17 + X34 >= 1
 R212: X8 + X18 + X43 >= 1
 R213: X8 + X19 + X32 >= 1
 R214: X8 + X20 + X31 >= 1
 R215: X8 + X21 + X42 >= 1
 R216: X0 + X8 + X22 >= 1
 R217: X8 + X23 + X38 >= 1
 R218: X8 + X24 + X41 >= 1
 R219: X8 + X25 + X44 >= 1
 R220: X8 + X26 + X39 >= 1
 R221: X8 + X27 + X36 >= 1
 R222: X8 + X28 + X33 >= 1
 R223: X8 + X29 + X40 >= 1
 R224: X8 + X30 + X37 >= 1
 R225: X9 + X16 + X32 >= 1
 R226: X9 + X17 + X31 >= 1
 R227: X9 + X18 + X35 >= 1
 R228: X9 + X19 + X44 >= 1
 R229: X9 + X20 + X33 >= 1
 R230: X0 + X9 + X21 >= 1
 R231: X9 + X22 + X43 >= 1
 R232: X9 + X23 + X41 >= 1
 R233: X9 + X24 + X39 >= 1
 R234: X9 + X25 + X42 >= 1
 R235: X9 + X26 + X38 >= 1
 R236: X9 + X27 + X40 >= 1
 R237: X9 + X28 + X37 >= 1
 R238: X9 + X29 + X34 >= 1
 R239: X9 + X30 + X36 >= 1
 R240: X10 + X16 + X34 >= 1
 R241: X10 + X17 + X33 >= 1
 R242: X10 + X18 + X32 >= 1
 R243: X10 + X19 + X31 >= 1
 R244: X0 + X10 + X20 >= 1
 R245: X10 + X21 + X43 >= 1
 R246: X10 + X22 + X41 >= 1
 R247: X10 + X23 + X44 >= 1
 R248: X10 + X24 + X42 >= 1
 R249: X10 + X25 + X40 >= 1
 R250: X10 + X26 + X37 >= 1
 R251: X10 + X27 + X39 >= 1
 R252: X10 + X28 + X36 >= 1
 R253: X10 + X29 + X38 >= 1
 R254: X10 + X30 + X35 >= 1
 R255: X11 + X16 + X36 >= 1
 R256: X11 + X17 + X43 >= 1
 R257: X0 + X11 + X18 >= 1
 R258: X11 + X19 + X42 >= 1
 R259: X11 + X20 + X44 >= 1
 R260: X11 + X21 + X31 >= 1
 R261: X11 + X22 + X40 >= 1
 R262: X11 + X23 + X39 >= 1
 R263: X11 + X24 + X38 >= 1
 R264: X11 + X25 + X37 >= 1
 R265: X11 + X26 + X41 >= 1
 R266: X11 + X27 + X34 >= 1
 R267: X11 + X28 + X32 >= 1
 R268: X11 + X29 + X35 >= 1
 R269: X11 + X30 + X33 >= 1
 R270: X0 + X12 + X16 >= 1
 R271: X12 + X17 + X37 >= 1
 R272: X12 + X18 + X44 >= 1
 R273: X12 + X19 + X41 >= 1
 R274: X12 + X20 + X43 >= 1
 R275: X12 + X21 + X38 >= 1
 R276: X12 + X22 + X32 >= 1
 R277: X12 + X23 + X36 >= 1
 R278: X12 + X24 + X40 >= 1
 R279: X12 + X25 + X39 >= 1
 R280: X12 + X26 + X34 >= 1
 R281: X12 + X27 + X42 >= 1
 R282: X12 + X28 + X35 >= 1
 R283: X12 + X29 + X33 >= 1
 R284: X12 + X30 + X31 >= 1
 R285: X13 + X16 + X44 >= 1
 R286: X13 + X17 + X41 >= 1
 R287: X13 + X18 + X38 >= 1
 R288: X0 + X13 + X19 >= 1
 R289: X13 + X20 + X42 >= 1
 R290: X13 + X21 + X40 >= 1
 R291: X13 + X22 + X39 >= 1
 R292: X13 + X23 + X33 >= 1
 R293: X13 + X24 + X37 >= 1
 R294: X13 + X25 + X36 >= 1
 R295: X13 + X26 + X32 >= 1
 R296: X13 + X27 + X35 >= 1
 R297: X13 + X28 + X43 >= 1
 R298: X13 + X29 + X31 >= 1
 R299: X13 + X30 + X34 >= 1
 R300: X14 + X16 + X43 >= 1
 R301: X0 + X14 + X17 >= 1
 R302: X14 + X18 + X42 >= 1
 R303: X14 + X19 + X39 >= 1
 R304: X14 + X20 + X41 >= 1
 R305: X14 + X21 + X37 >= 1
 R306: X14 + X22 + X36 >= 1
 R307: X14 + X23 + X40 >= 1
 R308: X14 + X24 + X34 >= 1
 R309: X14 + X25 + X38 >= 1
 R310: X14 + X26 + X35 >= 1
 R311: X14 + X27 + X33 >= 1
 R312: X14 + X28 + X31 >= 1
 R313: X14 + X29 + X44 >= 1
 R314: X14 + X30 + X32 >= 1
 R315: X15 + X16 + X42 >= 1
 R316: X15 + X17 + X44 >= 1
 R317: X15 + X18 + X41 >= 1
 R318: X15 + X19 + X43 >= 1
 R319: X15 + X20 + X40 >= 1
 R320: X15 + X21 + X39 >= 1
 R321: X15 + X22 + X38 >= 1
 R322: X15 + X23 + X37 >= 1
 R323: X15 + X24 + X36 >= 1
 R324: X15 + X25 + X35 >= 1
 R325: X15 + X26 + X33 >= 1
 R326: X15 + X27 + X31 >= 1
 R327: X15 + X28 + X34 >= 1
 R328: X15 + X29 + X32 >= 1
 R329: X0 + X15 + X30 >= 1
Bounds
 X0 <= 1
 X1 <= 1
 X2 <= 1
 X3 <= 1
 X4 <= 1
 X5 <= 1
 X6 <= 1
 X7 <= 1
 X8 <= 1
 X9 <= 1
 X10 <= 1
 X11 <= 1
 X12 <= 1
 X13 <= 1
 X14 <= 1
 X15 <= 1
 X16 <= 1
 X17 <= 1
 X18 <= 1
 X19 <= 1
 X20 <= 1
 X21 <= 1
 X22 <= 1
 X23 <= 1
 X24 <= 1
 X25 <= 1
 X26 <= 1
 X27 <= 1
 X28 <= 1
 X29 <= 1
 X30 <= 1
 X31 <= 1
 X32 <= 1
 X33 <= 1
 X34 <= 1
 X35 <= 1
 X36 <= 1
 X37 <= 1
 X38 <= 1
 X39 <= 1
 X40 <= 1
 X41 <= 1
 X42 <= 1
 X43 <= 1
 X44 <= 1
End
